NAME : rc201.3.7224343.tour
COMMENT : Length = 7224343
COMMENT : Found by LKH [Keld Helsgaun] Tue Nov  7 19:52:17 2017
TYPE : TOUR
DIMENSION : 20
TOUR_SECTION
1
16
8
9
10
11
14
20
18
17
6
5
19
7
3
12
13
15
4
2
-1
EOF
